(set-info :source |printed by MathSAT|)
(declare-fun |!{$(in_main#0)<N>}| () Int)
(declare-fun |!{$(in_main#0)<N>}.next| () Int)
(declare-fun |!{$(in_main#0)<a>}| () Int)
(declare-fun |!{$(in_main#0)<a>}.next| () Int)
(declare-fun |!{$(in_main#0)<i>}| () Int)
(declare-fun |!{$(in_main#0)<i>}.next| () Int)
(declare-fun |!{$(in_main#0)<x>}| () Int)
(declare-fun |!{$(in_main#0)<x>}.next| () Int)
(declare-fun |!{$(in_main#0)<a1.1>}| () (Array Int Int))
(declare-fun |!{$(in_main#0)<a1.1>}.next| () (Array Int Int))
(declare-fun |!{$(in_main#0)<a2.2>}| () (Array Int Int))
(declare-fun |!{$(in_main#0)<a2.2>}.next| () (Array Int Int))
(declare-fun |!{$(in_main#0)<a3.3>}| () (Array Int Int))
(declare-fun |!{$(in_main#0)<a3.3>}.next| () (Array Int Int))
(declare-fun |!{$(in_main#0)<a4.4>}| () (Array Int Int))
(declare-fun |!{$(in_main#0)<a4.4>}.next| () (Array Int Int))
(declare-fun |!{$(in_main#0)<a5.5>}| () (Array Int Int))
(declare-fun |!{$(in_main#0)<a5.5>}.next| () (Array Int Int))
(declare-fun |!{$(in_main#0)<$(in___VERIFIER_nondet_int#0)<h#<__VERIFIER_nondet_int.return>>>}| () Int)
(declare-fun |!{$(in_main#0)<$(in___VERIFIER_nondet_int#1)<h#<__VERIFIER_nondet_int.return>>>}| () Int)
(declare-fun !pc () Int)
(declare-fun !pc.next () Int)
(declare-fun |%{$(in_main#0)<i>}#1| () Int)
(declare-fun |%{$(in_main#0)<x>}#1| () Int)
(declare-fun |%{$(in_main#0)<a1.1>}#1| () (Array Int Int))
(declare-fun |%{$(in_main#0)<a2.2>}#1| () (Array Int Int))
(declare-fun |%{$(in_main#0)<a3.3>}#1| () (Array Int Int))
(declare-fun |%{$(in_main#0)<a4.4>}#1| () (Array Int Int))
(declare-fun |%{$(in_main#0)<a5.5>}#1| () (Array Int Int))
(define-fun .def_43 () Int (! !pc :next !pc.next))
(define-fun .def_46 () Bool (! (= .def_43 2) :init true))
(define-fun .def_262 () Bool (= .def_43 34))
(define-fun .def_237 () Bool (= !pc.next 55))
(define-fun .def_265 () Bool (and .def_237 .def_262))
(define-fun .def_10 () Int (! |!{$(in_main#0)<a>}| :next |!{$(in_main#0)<a>}.next|))
(define-fun .def_8 () Int (! |!{$(in_main#0)<N>}| :next |!{$(in_main#0)<N>}.next|))
(define-fun .def_244 () Bool (<= .def_8 .def_10))
(define-fun .def_193 () Bool (= |!{$(in_main#0)<i>}.next| 0))
(define-fun .def_96 () Bool (= .def_10 |!{$(in_main#0)<a>}.next|))
(define-fun .def_94 () Bool (= .def_8 |!{$(in_main#0)<N>}.next|))
(define-fun .def_113 () Bool (and .def_94 .def_96))
(define-fun .def_194 () Bool (and .def_113 .def_193))
(define-fun .def_14 () Int (! |!{$(in_main#0)<x>}| :next |!{$(in_main#0)<x>}.next|))
(define-fun .def_100 () Bool (= .def_14 |!{$(in_main#0)<x>}.next|))
(define-fun .def_195 () Bool (and .def_100 .def_194))
(define-fun .def_16 () (Array Int Int) (! |!{$(in_main#0)<a1.1>}| :next |!{$(in_main#0)<a1.1>}.next|))
(define-fun .def_102 () Bool (= .def_16 |!{$(in_main#0)<a1.1>}.next|))
(define-fun .def_196 () Bool (and .def_102 .def_195))
(define-fun .def_18 () (Array Int Int) (! |!{$(in_main#0)<a2.2>}| :next |!{$(in_main#0)<a2.2>}.next|))
(define-fun .def_104 () Bool (= .def_18 |!{$(in_main#0)<a2.2>}.next|))
(define-fun .def_197 () Bool (and .def_104 .def_196))
(define-fun .def_20 () (Array Int Int) (! |!{$(in_main#0)<a3.3>}| :next |!{$(in_main#0)<a3.3>}.next|))
(define-fun .def_106 () Bool (= .def_20 |!{$(in_main#0)<a3.3>}.next|))
(define-fun .def_198 () Bool (and .def_106 .def_197))
(define-fun .def_22 () (Array Int Int) (! |!{$(in_main#0)<a4.4>}| :next |!{$(in_main#0)<a4.4>}.next|))
(define-fun .def_108 () Bool (= .def_22 |!{$(in_main#0)<a4.4>}.next|))
(define-fun .def_199 () Bool (and .def_108 .def_198))
(define-fun .def_24 () (Array Int Int) (! |!{$(in_main#0)<a5.5>}| :next |!{$(in_main#0)<a5.5>}.next|))
(define-fun .def_110 () Bool (= .def_24 |!{$(in_main#0)<a5.5>}.next|))
(define-fun .def_200 () Bool (and .def_110 .def_199))
(define-fun .def_261 () Bool (and .def_200 .def_244))
(define-fun .def_266 () Bool (and .def_261 .def_265))
(define-fun .def_80 () Bool (= !pc.next 34))
(define-fun .def_263 () Bool (and .def_80 .def_262))
(define-fun .def_246 () (Array Int Int) (store .def_16 .def_10 |!{$(in_main#0)<$(in___VERIFIER_nondet_int#1)<h#<__VERIFIER_nondet_int.return>>>}|))
(define-fun .def_254 () Bool (= |!{$(in_main#0)<a1.1>}.next| .def_246))
(define-fun .def_248 () Int (* (- 1) |!{$(in_main#0)<a>}.next|))
(define-fun .def_249 () Int (+ .def_10 .def_248))
(define-fun .def_250 () Bool (= .def_249 (- 1)))
(define-fun .def_251 () Bool (and .def_94 .def_250))
(define-fun .def_12 () Int (! |!{$(in_main#0)<i>}| :next |!{$(in_main#0)<i>}.next|))
(define-fun .def_98 () Bool (= .def_12 |!{$(in_main#0)<i>}.next|))
(define-fun .def_252 () Bool (and .def_98 .def_251))
(define-fun .def_253 () Bool (and .def_100 .def_252))
(define-fun .def_255 () Bool (and .def_253 .def_254))
(define-fun .def_256 () Bool (and .def_104 .def_255))
(define-fun .def_257 () Bool (and .def_106 .def_256))
(define-fun .def_258 () Bool (and .def_108 .def_257))
(define-fun .def_259 () Bool (and .def_110 .def_258))
(define-fun .def_245 () Bool (not .def_244))
(define-fun .def_260 () Bool (and .def_245 .def_259))
(define-fun .def_264 () Bool (and .def_260 .def_263))
(define-fun .def_267 () Bool (or .def_264 .def_266))
(define-fun .def_236 () Bool (= .def_43 55))
(define-fun .def_220 () Bool (= !pc.next 69))
(define-fun .def_240 () Bool (and .def_220 .def_236))
(define-fun .def_153 () Bool (<= .def_8 .def_12))
(define-fun .def_201 () Bool (and .def_153 .def_200))
(define-fun .def_241 () Bool (and .def_201 .def_240))
(define-fun .def_238 () Bool (and .def_236 .def_237))
(define-fun .def_227 () Int (select .def_16 .def_12))
(define-fun .def_228 () (Array Int Int) (store .def_18 .def_12 .def_227))
(define-fun .def_229 () Bool (= |!{$(in_main#0)<a2.2>}.next| .def_228))
(define-fun .def_158 () Int (* (- 1) |!{$(in_main#0)<i>}.next|))
(define-fun .def_159 () Int (+ .def_12 .def_158))
(define-fun .def_160 () Bool (= .def_159 (- 1)))
(define-fun .def_161 () Bool (and .def_113 .def_160))
(define-fun .def_162 () Bool (and .def_100 .def_161))
(define-fun .def_163 () Bool (and .def_102 .def_162))
(define-fun .def_230 () Bool (and .def_163 .def_229))
(define-fun .def_231 () Bool (and .def_106 .def_230))
(define-fun .def_232 () Bool (and .def_108 .def_231))
(define-fun .def_233 () Bool (and .def_110 .def_232))
(define-fun .def_154 () Bool (not .def_153))
(define-fun .def_234 () Bool (and .def_154 .def_233))
(define-fun .def_239 () Bool (and .def_234 .def_238))
(define-fun .def_242 () Bool (or .def_239 .def_241))
(define-fun .def_219 () Bool (= .def_43 69))
(define-fun .def_204 () Bool (= !pc.next 83))
(define-fun .def_223 () Bool (and .def_204 .def_219))
(define-fun .def_224 () Bool (and .def_201 .def_223))
(define-fun .def_221 () Bool (and .def_219 .def_220))
(define-fun .def_211 () Int (select .def_18 .def_12))
(define-fun .def_212 () (Array Int Int) (store .def_20 .def_12 .def_211))
(define-fun .def_213 () Bool (= |!{$(in_main#0)<a3.3>}.next| .def_212))
(define-fun .def_164 () Bool (and .def_104 .def_163))
(define-fun .def_214 () Bool (and .def_164 .def_213))
(define-fun .def_215 () Bool (and .def_108 .def_214))
(define-fun .def_216 () Bool (and .def_110 .def_215))
(define-fun .def_217 () Bool (and .def_154 .def_216))
(define-fun .def_222 () Bool (and .def_217 .def_221))
(define-fun .def_225 () Bool (or .def_222 .def_224))
(define-fun .def_203 () Bool (= .def_43 83))
(define-fun .def_180 () Bool (= !pc.next 97))
(define-fun .def_207 () Bool (and .def_180 .def_203))
(define-fun .def_208 () Bool (and .def_201 .def_207))
(define-fun .def_205 () Bool (and .def_203 .def_204))
(define-fun .def_187 () Int (select .def_20 .def_12))
(define-fun .def_188 () (Array Int Int) (store .def_22 .def_12 .def_187))
(define-fun .def_189 () Bool (= |!{$(in_main#0)<a4.4>}.next| .def_188))
(define-fun .def_165 () Bool (and .def_106 .def_164))
(define-fun .def_190 () Bool (and .def_165 .def_189))
(define-fun .def_191 () Bool (and .def_110 .def_190))
(define-fun .def_192 () Bool (and .def_154 .def_191))
(define-fun .def_206 () Bool (and .def_192 .def_205))
(define-fun .def_209 () Bool (or .def_206 .def_208))
(define-fun .def_179 () Bool (= .def_43 97))
(define-fun .def_142 () Bool (= !pc.next 111))
(define-fun .def_183 () Bool (and .def_142 .def_179))
(define-fun .def_170 () Bool (= |!{$(in_main#0)<x>}.next| 0))
(define-fun .def_114 () Bool (and .def_98 .def_113))
(define-fun .def_171 () Bool (and .def_114 .def_170))
(define-fun .def_172 () Bool (and .def_102 .def_171))
(define-fun .def_173 () Bool (and .def_104 .def_172))
(define-fun .def_174 () Bool (and .def_106 .def_173))
(define-fun .def_175 () Bool (and .def_108 .def_174))
(define-fun .def_176 () Bool (and .def_110 .def_175))
(define-fun .def_177 () Bool (and .def_153 .def_176))
(define-fun .def_184 () Bool (and .def_177 .def_183))
(define-fun .def_181 () Bool (and .def_179 .def_180))
(define-fun .def_155 () Int (select .def_22 .def_12))
(define-fun .def_156 () (Array Int Int) (store .def_24 .def_12 .def_155))
(define-fun .def_167 () Bool (= |!{$(in_main#0)<a5.5>}.next| .def_156))
(define-fun .def_166 () Bool (and .def_108 .def_165))
(define-fun .def_168 () Bool (and .def_166 .def_167))
(define-fun .def_169 () Bool (and .def_154 .def_168))
(define-fun .def_182 () Bool (and .def_169 .def_181))
(define-fun .def_185 () Bool (or .def_182 .def_184))
(define-fun .def_146 () Bool (= !pc.next 0))
(define-fun .def_137 () Bool (= .def_43 111))
(define-fun .def_147 () Bool (and .def_137 .def_146))
(define-fun .def_83 () Bool (<= .def_8 .def_14))
(define-fun .def_127 () Bool (and .def_83 .def_94))
(define-fun .def_128 () Bool (and .def_96 .def_127))
(define-fun .def_129 () Bool (and .def_98 .def_128))
(define-fun .def_130 () Bool (and .def_100 .def_129))
(define-fun .def_131 () Bool (and .def_102 .def_130))
(define-fun .def_132 () Bool (and .def_104 .def_131))
(define-fun .def_133 () Bool (and .def_106 .def_132))
(define-fun .def_134 () Bool (and .def_108 .def_133))
(define-fun .def_135 () Bool (and .def_110 .def_134))
(define-fun .def_148 () Bool (and .def_135 .def_147))
(define-fun .def_143 () Bool (and .def_137 .def_142))
(define-fun .def_116 () Int (* (- 1) |!{$(in_main#0)<x>}.next|))
(define-fun .def_117 () Int (+ .def_14 .def_116))
(define-fun .def_118 () Bool (= .def_117 (- 1)))
(define-fun .def_119 () Bool (and .def_114 .def_118))
(define-fun .def_120 () Bool (and .def_102 .def_119))
(define-fun .def_121 () Bool (and .def_104 .def_120))
(define-fun .def_122 () Bool (and .def_106 .def_121))
(define-fun .def_123 () Bool (and .def_108 .def_122))
(define-fun .def_124 () Bool (and .def_110 .def_123))
(define-fun .def_86 () Int (select .def_24 .def_14))
(define-fun .def_85 () Int (select .def_16 .def_14))
(define-fun .def_87 () Bool (= .def_85 .def_86))
(define-fun .def_88 () Int (ite .def_87 1 0))
(define-fun .def_89 () Bool (= .def_88 0))
(define-fun .def_90 () Bool (not .def_89))
(define-fun .def_125 () Bool (and .def_90 .def_124))
(define-fun .def_84 () Bool (not .def_83))
(define-fun .def_126 () Bool (and .def_84 .def_125))
(define-fun .def_144 () Bool (and .def_126 .def_143))
(define-fun .def_139 () Bool (= !pc.next 131))
(define-fun .def_140 () Bool (and .def_137 .def_139))
(define-fun .def_95 () Bool (and .def_89 .def_94))
(define-fun .def_97 () Bool (and .def_95 .def_96))
(define-fun .def_99 () Bool (and .def_97 .def_98))
(define-fun .def_101 () Bool (and .def_99 .def_100))
(define-fun .def_103 () Bool (and .def_101 .def_102))
(define-fun .def_105 () Bool (and .def_103 .def_104))
(define-fun .def_107 () Bool (and .def_105 .def_106))
(define-fun .def_109 () Bool (and .def_107 .def_108))
(define-fun .def_111 () Bool (and .def_109 .def_110))
(define-fun .def_112 () Bool (and .def_84 .def_111))
(define-fun .def_141 () Bool (and .def_112 .def_140))
(define-fun .def_145 () Bool (or .def_141 .def_144))
(define-fun .def_149 () Bool (or .def_145 .def_148))
(define-fun .def_81 () Bool (and .def_46 .def_80))
(define-fun .def_77 () Bool (= |!{$(in_main#0)<a5.5>}.next| |%{$(in_main#0)<a5.5>}#1|))
(define-fun .def_75 () Bool (= |!{$(in_main#0)<a4.4>}.next| |%{$(in_main#0)<a4.4>}#1|))
(define-fun .def_73 () Bool (= |!{$(in_main#0)<a3.3>}.next| |%{$(in_main#0)<a3.3>}#1|))
(define-fun .def_71 () Bool (= |!{$(in_main#0)<a2.2>}.next| |%{$(in_main#0)<a2.2>}#1|))
(define-fun .def_69 () Bool (= |!{$(in_main#0)<a1.1>}.next| |%{$(in_main#0)<a1.1>}#1|))
(define-fun .def_67 () Bool (= |!{$(in_main#0)<x>}.next| |%{$(in_main#0)<x>}#1|))
(define-fun .def_65 () Bool (= |!{$(in_main#0)<i>}.next| |%{$(in_main#0)<i>}#1|))
(define-fun .def_63 () Bool (= |!{$(in_main#0)<a>}.next| 0))
(define-fun .def_62 () Bool (= |!{$(in_main#0)<N>}.next| |!{$(in_main#0)<$(in___VERIFIER_nondet_int#0)<h#<__VERIFIER_nondet_int.return>>>}|))
(define-fun .def_64 () Bool (and .def_62 .def_63))
(define-fun .def_66 () Bool (and .def_64 .def_65))
(define-fun .def_68 () Bool (and .def_66 .def_67))
(define-fun .def_70 () Bool (and .def_68 .def_69))
(define-fun .def_72 () Bool (and .def_70 .def_71))
(define-fun .def_74 () Bool (and .def_72 .def_73))
(define-fun .def_76 () Bool (and .def_74 .def_75))
(define-fun .def_78 () Bool (and .def_76 .def_77))
(define-fun .def_82 () Bool (and .def_78 .def_81))
(define-fun .def_150 () Bool (or .def_82 .def_149))
(define-fun .def_186 () Bool (or .def_150 .def_185))
(define-fun .def_210 () Bool (or .def_186 .def_209))
(define-fun .def_226 () Bool (or .def_210 .def_225))
(define-fun .def_243 () Bool (or .def_226 .def_242))
(define-fun .def_268 () Bool (! (or .def_243 .def_267) :trans true))
(define-fun .def_151 () Bool (= .def_43 131))
(define-fun .def_269 () Bool (! (not .def_151) :invar-property 0 :invar-property-name ||))
(assert true)
